certificates/rado_a13_c87_N36.drat
7 -33 0
9 31 -7 0
-7 -34 -35 -36 0
-9 7 -34 -35 0
7 -34 -35 0
d -9 7 -34 -35 0
-34 -35 -36 0
d -7 -34 -35 -36 0
9 7 -35 0
7 -35 -36 0
-35 -36 0
d 7 -35 -36 0
-9 -7 35 0
-7 -36 0
-5 -36 0
-36 0
-9 -31 7 0
35 7 0
7 0
-3 0
-11 0
5 0
-27 0
-1 0
-9 0
-29 0
6 0
4 0
31 0
33 0
-2 0
-10 0
-15 0
-16 0
-24 0
-14 0
-28 0
-22 0
-8 0
-26 0
-13 0
-35 0
32 0
19 0
0
